p cnf 14 64
1 10 13 0
2 9 14 0
-2 -4 -11 0
-2 5 9 0
1 6 -11 0
2 11 -14 0
-3 -4 -9 0
-6 -9 -13 0
7 -10 -11 0
-2 4 5 0
2 3 5 0
1 -7 -11 0
4 6 -9 0
-7 -12 13 0
2 4 -10 0
-4 6 -10 0
-2 5 -11 0
-5 -9 10 0
-2 -9 10 0
-3 6 10 0
-8 -12 13 0
4 6 -7 0
-5 -7 -8 0
7 -13 14 0
-1 6 -13 0
2 -6 -10 0
-2 9 -11 0
6 10 12 0
8 11 12 0
-3 9 -11 0
5 -12 14 0
-4 7 -9 0
3 5 10 0
2 -13 14 0
3 7 -11 0
-4 -6 -10 0
10 -12 -14 0
-4 -10 13 0
5 11 12 0
-2 5 -13 0
-7 -9 14 0
5 6 8 0
4 5 -7 0
2 5 13 0
1 2 9 0
8 9 -14 0
4 5 -13 0
9 11 12 0
1 -2 -9 0
1 3 -7 0
5 8 14 0
1 -9 13 0
1 7 -14 0
-6 9 13 0
-5 -6 -14 0
6 -7 9 0
-6 11 13 0
-7 9 14 0
4 -9 13 0
-1 -6 -11 0
8 -11 -12 0
-3 5 12 0
-9 -10 -13 0
-1 9 13 0
